c FILE: i160-341

c SOURCE: From steinlib

c DESCRIPTION: Steinlib instance with 160 nodes and 2544 edges.

p edge 160 2544
e 1 3
e 1 9
e 1 16
e 1 17
e 1 26
e 1 33
e 1 36
e 1 43
e 1 47
e 1 49
e 1 60
e 1 61
e 1 67
e 1 72
e 1 75
e 1 77
e 1 78
e 1 79
e 1 86
e 1 87
e 1 90
e 1 91
e 1 92
e 1 94
e 1 95
e 1 97
e 1 103
e 1 118
e 1 123
e 1 128
e 1 130
e 1 139
e 1 140
e 1 142
e 1 145
e 1 146
e 1 147
e 1 149
e 1 159
e 2 5
e 2 9
e 2 10
e 2 16
e 2 19
e 2 22
e 2 24
e 2 28
e 2 36
e 2 39
e 2 42
e 2 44
e 2 46
e 2 49
e 2 52
e 2 54
e 2 58
e 2 61
e 2 62
e 2 64
e 2 67
e 2 77
e 2 81
e 2 83
e 2 85
e 2 87
e 2 92
e 2 93
e 2 95
e 2 99
e 2 101
e 2 110
e 2 111
e 2 135
e 2 138
e 2 144
e 2 151
e 2 153
e 3 14
e 3 20
e 3 21
e 3 28
e 3 37
e 3 42
e 3 54
e 3 55
e 3 56
e 3 61
e 3 81
e 3 95
e 3 98
e 3 103
e 3 105
e 3 109
e 3 111
e 3 118
e 3 126
e 3 131
e 3 134
e 3 141
e 3 149
e 3 155
e 4 6
e 4 7
e 4 14
e 4 29
e 4 47
e 4 50
e 4 60
e 4 63
e 4 66
e 4 68
e 4 72
e 4 74
e 4 89
e 4 95
e 4 97
e 4 102
e 4 112
e 4 114
e 4 117
e 4 120
e 4 122
e 4 124
e 4 125
e 4 126
e 4 128
e 4 146
e 4 153
e 4 155
e 4 157
e 4 158
e 4 159
e 5 7
e 5 9
e 5 21
e 5 37
e 5 38
e 5 39
e 5 42
e 5 60
e 5 61
e 5 74
e 5 82
e 5 90
e 5 92
e 5 95
e 5 107
e 5 108
e 5 110
e 5 113
e 5 116
e 5 126
e 5 133
e 5 137
e 5 142
e 5 147
e 5 152
e 5 157
e 6 7
e 6 8
e 6 12
e 6 14
e 6 17
e 6 21
e 6 24
e 6 28
e 6 29
e 6 32
e 6 37
e 6 46
e 6 48
e 6 52
e 6 57
e 6 74
e 6 77
e 6 80
e 6 84
e 6 87
e 6 95
e 6 97
e 6 106
e 6 108
e 6 109
e 6 119
e 6 121
e 6 131
e 6 145
e 6 153
e 6 154
e 6 156
e 6 158
e 7 11
e 7 13
e 7 20
e 7 26
e 7 29
e 7 30
e 7 36
e 7 37
e 7 41
e 7 48
e 7 52
e 7 53
e 7 54
e 7 59
e 7 62
e 7 64
e 7 66
e 7 68
e 7 73
e 7 75
e 7 77
e 7 115
e 7 116
e 7 125
e 7 128
e 7 130
e 7 132
e 7 136
e 7 143
e 7 148
e 7 157
e 8 10
e 8 11
e 8 22
e 8 30
e 8 33
e 8 34
e 8 36
e 8 38
e 8 43
e 8 64
e 8 70
e 8 86
e 8 92
e 8 96
e 8 98
e 8 99
e 8 103
e 8 104
e 8 107
e 8 109
e 8 125
e 8 126
e 8 128
e 8 135
e 8 146
e 8 147
e 8 148
e 8 150
e 8 152
e 9 11
e 9 14
e 9 16
e 9 20
e 9 22
e 9 26
e 9 28
e 9 29
e 9 32
e 9 33
e 9 40
e 9 41
e 9 43
e 9 44
e 9 51
e 9 54
e 9 57
e 9 66
e 9 67
e 9 70
e 9 88
e 9 90
e 9 92
e 9 93
e 9 95
e 9 112
e 9 113
e 9 115
e 9 116
e 9 122
e 9 127
e 9 128
e 9 130
e 9 131
e 9 136
e 9 137
e 9 138
e 9 141
e 9 146
e 9 147
e 9 152
e 9 158
e 10 15
e 10 23
e 10 26
e 10 30
e 10 35
e 10 36
e 10 39
e 10 45
e 10 50
e 10 52
e 10 54
e 10 62
e 10 93
e 10 94
e 10 96
e 10 101
e 10 110
e 10 122
e 10 125
e 10 126
e 10 131
e 10 134
e 10 142
e 10 148
e 10 159
e 10 160
e 11 20
e 11 23
e 11 28
e 11 42
e 11 48
e 11 49
e 11 71
e 11 85
e 11 92
e 11 99
e 11 102
e 11 103
e 11 106
e 11 137
e 11 147
e 11 159
e 12 18
e 12 20
e 12 25
e 12 54
e 12 55
e 12 56
e 12 59
e 12 67
e 12 68
e 12 73
e 12 82
e 12 86
e 12 93
e 12 98
e 12 112
e 12 113
e 12 121
e 12 129
e 12 130
e 12 134
e 12 142
e 12 144
e 12 149
e 12 150
e 12 152
e 12 155
e 13 18
e 13 19
e 13 25
e 13 27
e 13 28
e 13 33
e 13 34
e 13 38
e 13 44
e 13 61
e 13 70
e 13 78
e 13 79
e 13 90
e 13 92
e 13 94
e 13 95
e 13 101
e 13 104
e 13 105
e 13 109
e 13 110
e 13 114
e 13 119
e 13 122
e 13 125
e 13 130
e 13 131
e 13 136
e 13 142
e 13 144
e 13 150
e 14 19
e 14 20
e 14 23
e 14 26
e 14 27
e 14 51
e 14 53
e 14 58
e 14 59
e 14 75
e 14 76
e 14 77
e 14 87
e 14 88
e 14 100
e 14 102
e 14 108
e 14 117
e 14 118
e 14 119
e 14 125
e 14 132
e 14 135
e 14 139
e 14 149
e 15 26
e 15 31
e 15 33
e 15 35
e 15 39
e 15 41
e 15 43
e 15 45
e 15 49
e 15 56
e 15 67
e 15 70
e 15 74
e 15 76
e 15 83
e 15 86
e 15 88
e 15 90
e 15 95
e 15 97
e 15 99
e 15 106
e 15 107
e 15 110
e 15 113
e 15 114
e 15 115
e 15 119
e 15 127
e 15 129
e 15 137
e 15 140
e 15 147
e 16 25
e 16 39
e 16 48
e 16 60
e 16 61
e 16 66
e 16 70
e 16 72
e 16 78
e 16 80
e 16 84
e 16 86
e 16 92
e 16 99
e 16 102
e 16 106
e 16 110
e 16 112
e 16 121
e 16 122
e 16 123
e 16 125
e 16 129
e 16 130
e 16 136
e 16 140
e 16 142
e 16 148
e 16 151
e 16 153
e 16 155
e 16 160
e 17 22
e 17 24
e 17 26
e 17 28
e 17 33
e 17 39
e 17 45
e 17 46
e 17 49
e 17 64
e 17 65
e 17 75
e 17 82
e 17 83
e 17 89
e 17 92
e 17 93
e 17 100
e 17 106
e 17 114
e 17 121
e 17 134
e 17 135
e 17 136
e 17 145
e 17 148
e 17 149
e 17 151
e 17 154
e 17 156
e 18 19
e 18 20
e 18 26
e 18 28
e 18 33
e 18 43
e 18 50
e 18 61
e 18 62
e 18 65
e 18 67
e 18 69
e 18 70
e 18 71
e 18 76
e 18 86
e 18 90
e 18 95
e 18 99
e 18 101
e 18 103
e 18 106
e 18 107
e 18 111
e 18 136
e 18 137
e 18 139
e 18 140
e 18 144
e 18 145
e 18 151
e 18 157
e 19 22
e 19 29
e 19 33
e 19 34
e 19 40
e 19 55
e 19 56
e 19 57
e 19 60
e 19 61
e 19 71
e 19 74
e 19 81
e 19 87
e 19 88
e 19 90
e 19 93
e 19 98
e 19 99
e 19 101
e 19 108
e 19 122
e 19 124
e 19 125
e 19 137
e 19 141
e 19 145
e 19 148
e 19 150
e 19 156
e 19 158
e 20 21
e 20 22
e 20 25
e 20 28
e 20 30
e 20 37
e 20 41
e 20 46
e 20 49
e 20 58
e 20 81
e 20 96
e 20 98
e 20 99
e 20 102
e 20 110
e 20 118
e 20 122
e 20 124
e 20 129
e 20 131
e 20 133
e 20 134
e 20 139
e 20 144
e 20 151
e 21 24
e 21 25
e 21 34
e 21 41
e 21 43
e 21 55
e 21 59
e 21 61
e 21 62
e 21 64
e 21 70
e 21 75
e 21 82
e 21 84
e 21 89
e 21 92
e 21 101
e 21 102
e 21 106
e 21 120
e 21 121
e 21 126
e 21 132
e 21 133
e 21 134
e 21 140
e 21 142
e 21 145
e 21 147
e 21 150
e 21 151
e 21 152
e 21 155
e 21 156
e 21 159
e 22 31
e 22 44
e 22 50
e 22 54
e 22 56
e 22 60
e 22 66
e 22 67
e 22 68
e 22 87
e 22 94
e 22 99
e 22 100
e 22 101
e 22 103
e 22 104
e 22 107
e 22 118
e 22 123
e 22 134
e 22 147
e 22 150
e 22 156
e 22 157
e 23 26
e 23 28
e 23 37
e 23 44
e 23 48
e 23 51
e 23 64
e 23 65
e 23 66
e 23 68
e 23 83
e 23 85
e 23 90
e 23 91
e 23 92
e 23 106
e 23 111
e 23 114
e 23 121
e 23 123
e 23 129
e 23 130
e 23 133
e 23 138
e 23 139
e 23 141
e 23 142
e 23 143
e 23 154
e 24 25
e 24 32
e 24 33
e 24 36
e 24 37
e 24 40
e 24 43
e 24 45
e 24 50
e 24 53
e 24 56
e 24 60
e 24 77
e 24 81
e 24 92
e 24 94
e 24 102
e 24 105
e 24 115
e 24 128
e 24 130
e 24 135
e 24 143
e 24 149
e 24 159
e 25 30
e 25 31
e 25 35
e 25 37
e 25 40
e 25 43
e 25 45
e 25 46
e 25 50
e 25 65
e 25 73
e 25 85
e 25 87
e 25 88
e 25 92
e 25 95
e 25 96
e 25 97
e 25 102
e 25 103
e 25 105
e 25 112
e 25 115
e 25 116
e 25 119
e 25 121
e 25 123
e 25 127
e 25 140
e 25 157
e 26 28
e 26 47
e 26 56
e 26 57
e 26 62
e 26 66
e 26 73
e 26 79
e 26 90
e 26 92
e 26 98
e 26 101
e 26 104
e 26 110
e 26 116
e 26 121
e 26 131
e 26 137
e 26 152
e 26 157
e 27 32
e 27 40
e 27 58
e 27 61
e 27 72
e 27 76
e 27 80
e 27 85
e 27 87
e 27 90
e 27 94
e 27 95
e 27 100
e 27 102
e 27 105
e 27 109
e 27 111
e 27 114
e 27 115
e 27 116
e 27 124
e 27 129
e 27 134
e 27 137
e 27 144
e 27 146
e 27 147
e 27 148
e 27 151
e 27 153
e 27 154
e 27 160
e 28 34
e 28 48
e 28 50
e 28 54
e 28 56
e 28 58
e 28 59
e 28 62
e 28 63
e 28 67
e 28 69
e 28 72
e 28 76
e 28 79
e 28 88
e 28 92
e 28 103
e 28 109
e 28 124
e 28 126
e 28 128
e 28 130
e 28 131
e 28 133
e 28 136
e 28 141
e 28 151
e 28 153
e 29 39
e 29 45
e 29 49
e 29 67
e 29 77
e 29 78
e 29 83
e 29 86
e 29 88
e 29 110
e 29 111
e 29 126
e 29 127
e 29 131
e 29 137
e 29 138
e 29 143
e 29 152
e 29 160
e 30 31
e 30 34
e 30 36
e 30 41
e 30 46
e 30 52
e 30 54
e 30 62
e 30 79
e 30 86
e 30 90
e 30 91
e 30 107
e 30 108
e 30 111
e 30 112
e 30 116
e 30 124
e 30 125
e 30 132
e 30 133
e 30 135
e 30 138
e 30 141
e 30 145
e 30 153
e 30 157
e 30 160
e 31 33
e 31 36
e 31 47
e 31 54
e 31 57
e 31 59
e 31 63
e 31 68
e 31 69
e 31 73
e 31 86
e 31 91
e 31 100
e 31 109
e 31 115
e 31 117
e 31 118
e 31 130
e 31 141
e 31 144
e 31 147
e 31 150
e 31 159
e 32 36
e 32 40
e 32 46
e 32 47
e 32 54
e 32 55
e 32 58
e 32 60
e 32 63
e 32 65
e 32 67
e 32 69
e 32 72
e 32 76
e 32 85
e 32 86
e 32 93
e 32 98
e 32 102
e 32 103
e 32 106
e 32 116
e 32 117
e 32 123
e 32 124
e 32 131
e 32 138
e 32 147
e 33 34
e 33 38
e 33 41
e 33 45
e 33 48
e 33 68
e 33 79
e 33 81
e 33 97
e 33 102
e 33 117
e 33 146
e 33 153
e 33 159
e 33 160
e 34 36
e 34 40
e 34 41
e 34 52
e 34 54
e 34 61
e 34 62
e 34 67
e 34 69
e 34 79
e 34 88
e 34 89
e 34 91
e 34 95
e 34 97
e 34 105
e 34 110
e 34 116
e 34 127
e 34 133
e 34 134
e 34 143
e 34 157
e 34 160
e 35 50
e 35 74
e 35 87
e 35 90
e 35 98
e 35 112
e 35 114
e 35 117
e 35 123
e 35 144
e 36 49
e 36 61
e 36 62
e 36 64
e 36 67
e 36 70
e 36 72
e 36 75
e 36 82
e 36 84
e 36 87
e 36 93
e 36 94
e 36 98
e 36 107
e 36 121
e 36 129
e 36 131
e 36 149
e 36 155
e 36 156
e 37 45
e 37 47
e 37 53
e 37 59
e 37 60
e 37 69
e 37 74
e 37 76
e 37 83
e 37 89
e 37 93
e 37 106
e 37 110
e 37 112
e 37 115
e 37 121
e 37 133
e 37 140
e 37 151
e 37 153
e 38 42
e 38 48
e 38 53
e 38 54
e 38 61
e 38 62
e 38 67
e 38 72
e 38 76
e 38 78
e 38 79
e 38 83
e 38 101
e 38 104
e 38 105
e 38 113
e 38 126
e 38 127
e 38 129
e 38 134
e 38 137
e 38 142
e 38 144
e 38 158
e 39 44
e 39 46
e 39 50
e 39 52
e 39 55
e 39 56
e 39 62
e 39 68
e 39 77
e 39 79
e 39 86
e 39 98
e 39 105
e 39 115
e 39 118
e 39 122
e 39 126
e 39 129
e 39 131
e 39 140
e 39 147
e 39 157
e 40 41
e 40 45
e 40 56
e 40 81
e 40 90
e 40 93
e 40 99
e 40 100
e 40 122
e 40 127
e 40 133
e 40 145
e 40 148
e 40 152
e 40 153
e 40 156
e 41 48
e 41 70
e 41 73
e 41 75
e 41 81
e 41 84
e 41 87
e 41 89
e 41 101
e 41 102
e 41 112
e 41 116
e 41 123
e 41 124
e 41 131
e 41 132
e 41 141
e 41 143
e 41 149
e 42 43
e 42 44
e 42 48
e 42 54
e 42 60
e 42 65
e 42 67
e 42 70
e 42 79
e 42 82
e 42 84
e 42 86
e 42 89
e 42 102
e 42 104
e 42 115
e 42 116
e 42 117
e 42 126
e 42 130
e 42 133
e 42 137
e 42 138
e 42 140
e 42 157
e 43 48
e 43 50
e 43 52
e 43 59
e 43 66
e 43 75
e 43 79
e 43 80
e 43 85
e 43 96
e 43 99
e 43 101
e 43 103
e 43 114
e 43 116
e 43 119
e 43 121
e 43 143
e 43 150
e 43 152
e 43 154
e 43 157
e 44 49
e 44 53
e 44 55
e 44 56
e 44 60
e 44 61
e 44 64
e 44 68
e 44 70
e 44 79
e 44 80
e 44 84
e 44 87
e 44 91
e 44 102
e 44 104
e 44 105
e 44 119
e 44 126
e 44 129
e 44 131
e 44 132
e 44 138
e 44 140
e 44 149
e 44 159
e 44 160
e 45 47
e 45 52
e 45 60
e 45 70
e 45 73
e 45 74
e 45 79
e 45 80
e 45 82
e 45 87
e 45 89
e 45 97
e 45 99
e 45 101
e 45 105
e 45 108
e 45 116
e 45 119
e 45 121
e 45 127
e 45 129
e 45 130
e 45 141
e 45 147
e 45 160
e 46 53
e 46 57
e 46 70
e 46 73
e 46 76
e 46 81
e 46 85
e 46 90
e 46 95
e 46 97
e 46 106
e 46 107
e 46 114
e 46 117
e 46 118
e 46 121
e 46 123
e 46 127
e 46 131
e 46 135
e 46 140
e 46 148
e 46 149
e 46 156
e 46 158
e 47 48
e 47 53
e 47 61
e 47 72
e 47 73
e 47 80
e 47 81
e 47 84
e 47 92
e 47 94
e 47 97
e 47 101
e 47 102
e 47 104
e 47 106
e 47 112
e 47 122
e 47 125
e 47 129
e 47 130
e 47 138
e 47 139
e 47 152
e 48 57
e 48 65
e 48 66
e 48 79
e 48 86
e 48 89
e 48 97
e 48 102
e 48 103
e 48 109
e 48 119
e 48 121
e 48 130
e 48 132
e 48 137
e 48 143
e 48 146
e 48 148
e 48 150
e 48 158
e 49 60
e 49 66
e 49 75
e 49 80
e 49 85
e 49 86
e 49 87
e 49 88
e 49 89
e 49 91
e 49 96
e 49 108
e 49 109
e 49 129
e 49 130
e 49 133
e 49 148
e 49 150
e 49 156
e 50 63
e 50 70
e 50 71
e 50 73
e 50 74
e 50 75
e 50 76
e 50 78
e 50 79
e 50 88
e 50 101
e 50 104
e 50 105
e 50 110
e 50 111
e 50 118
e 50 119
e 50 123
e 50 129
e 50 130
e 50 135
e 50 136
e 50 142
e 50 146
e 50 149
e 50 151
e 50 157
e 51 52
e 51 58
e 51 60
e 51 62
e 51 67
e 51 70
e 51 79
e 51 85
e 51 88
e 51 90
e 51 92
e 51 120
e 51 127
e 51 129
e 51 133
e 51 136
e 51 137
e 51 140
e 51 144
e 51 149
e 51 158
e 51 160
e 52 54
e 52 63
e 52 76
e 52 82
e 52 85
e 52 91
e 52 99
e 52 101
e 52 111
e 52 113
e 52 119
e 52 129
e 52 133
e 52 143
e 52 148
e 52 151
e 53 55
e 53 56
e 53 61
e 53 68
e 53 75
e 53 82
e 53 90
e 53 93
e 53 102
e 53 104
e 53 115
e 53 117
e 53 126
e 53 131
e 53 133
e 53 144
e 53 152
e 53 159
e 54 61
e 54 62
e 54 76
e 54 77
e 54 79
e 54 80
e 54 85
e 54 90
e 54 103
e 54 110
e 54 115
e 54 119
e 54 129
e 54 146
e 54 148
e 54 153
e 54 154
e 54 156
e 54 158
e 55 56
e 55 62
e 55 67
e 55 78
e 55 79
e 55 84
e 55 85
e 55 91
e 55 112
e 55 122
e 55 125
e 55 126
e 55 128
e 55 129
e 55 130
e 55 133
e 55 144
e 55 145
e 55 147
e 55 148
e 55 149
e 55 153
e 55 155
e 55 157
e 55 160
e 56 59
e 56 67
e 56 68
e 56 78
e 56 84
e 56 101
e 56 103
e 56 109
e 56 113
e 56 114
e 56 116
e 56 118
e 56 123
e 56 126
e 56 130
e 56 133
e 56 139
e 56 141
e 56 142
e 56 146
e 56 152
e 56 154
e 56 156
e 57 58
e 57 71
e 57 74
e 57 77
e 57 81
e 57 86
e 57 87
e 57 88
e 57 92
e 57 95
e 57 96
e 57 98
e 57 105
e 57 114
e 57 122
e 57 126
e 57 130
e 57 134
e 57 136
e 57 137
e 57 138
e 57 140
e 57 144
e 57 152
e 57 155
e 57 158
e 57 160
e 58 59
e 58 60
e 58 61
e 58 67
e 58 69
e 58 70
e 58 76
e 58 83
e 58 90
e 58 94
e 58 96
e 58 110
e 58 111
e 58 116
e 58 118
e 58 124
e 58 131
e 58 144
e 58 145
e 58 147
e 58 148
e 58 149
e 58 157
e 59 60
e 59 61
e 59 66
e 59 69
e 59 72
e 59 73
e 59 74
e 59 75
e 59 85
e 59 87
e 59 88
e 59 91
e 59 95
e 59 102
e 59 104
e 59 112
e 59 117
e 59 121
e 59 125
e 59 126
e 59 130
e 59 138
e 59 139
e 59 141
e 59 148
e 59 149
e 59 152
e 59 155
e 60 61
e 60 63
e 60 65
e 60 75
e 60 80
e 60 82
e 60 112
e 60 116
e 60 121
e 60 124
e 61 68
e 61 76
e 61 77
e 61 88
e 61 90
e 61 113
e 61 124
e 61 125
e 61 132
e 61 143
e 61 145
e 61 147
e 61 149
e 61 154
e 61 156
e 61 160
e 62 64
e 62 72
e 62 73
e 62 74
e 62 77
e 62 83
e 62 86
e 62 87
e 62 97
e 62 108
e 62 111
e 62 121
e 62 125
e 62 130
e 62 138
e 62 140
e 62 146
e 63 64
e 63 66
e 63 68
e 63 73
e 63 80
e 63 81
e 63 84
e 63 95
e 63 101
e 63 110
e 63 113
e 63 116
e 63 119
e 63 120
e 63 122
e 63 126
e 63 132
e 63 133
e 63 142
e 63 145
e 63 148
e 63 151
e 63 158
e 63 159
e 64 67
e 64 70
e 64 74
e 64 79
e 64 83
e 64 92
e 64 93
e 64 96
e 64 117
e 64 118
e 64 119
e 64 127
e 64 142
e 64 159
e 64 160
e 65 66
e 65 70
e 65 80
e 65 82
e 65 87
e 65 91
e 65 101
e 65 108
e 65 110
e 65 113
e 65 115
e 65 127
e 65 128
e 65 134
e 65 135
e 65 139
e 65 145
e 65 155
e 65 160
e 66 70
e 66 71
e 66 73
e 66 74
e 66 75
e 66 85
e 66 92
e 66 102
e 66 109
e 66 124
e 66 128
e 66 130
e 66 137
e 66 142
e 66 150
e 66 153
e 66 154
e 66 158
e 66 160
e 67 72
e 67 73
e 67 78
e 67 88
e 67 90
e 67 99
e 67 111
e 67 119
e 67 126
e 67 130
e 67 133
e 67 134
e 67 137
e 67 142
e 67 144
e 67 146
e 67 151
e 67 156
e 67 158
e 67 160
e 68 82
e 68 84
e 68 85
e 68 86
e 68 91
e 68 96
e 68 100
e 68 101
e 68 105
e 68 106
e 68 114
e 68 122
e 68 134
e 68 138
e 68 145
e 68 153
e 68 158
e 69 70
e 69 80
e 69 97
e 69 98
e 69 112
e 69 122
e 69 123
e 69 133
e 69 135
e 69 144
e 69 146
e 69 150
e 69 151
e 69 155
e 69 159
e 70 72
e 70 77
e 70 90
e 70 92
e 70 96
e 70 103
e 70 104
e 70 108
e 70 109
e 70 116
e 70 124
e 70 125
e 70 138
e 70 148
e 70 151
e 70 159
e 71 72
e 71 74
e 71 76
e 71 78
e 71 81
e 71 82
e 71 85
e 71 86
e 71 87
e 71 88
e 71 89
e 71 94
e 71 98
e 71 103
e 71 105
e 71 107
e 71 110
e 71 117
e 71 121
e 71 132
e 71 140
e 71 147
e 71 151
e 71 153
e 71 155
e 72 75
e 72 77
e 72 80
e 72 84
e 72 86
e 72 91
e 72 97
e 72 98
e 72 99
e 72 109
e 72 113
e 72 118
e 72 119
e 72 126
e 72 128
e 72 129
e 72 133
e 72 135
e 72 137
e 72 142
e 72 145
e 72 147
e 72 153
e 73 74
e 73 77
e 73 78
e 73 80
e 73 88
e 73 96
e 73 100
e 73 101
e 73 106
e 73 108
e 73 113
e 73 115
e 73 116
e 73 128
e 73 130
e 73 137
e 73 142
e 73 157
e 74 75
e 74 79
e 74 82
e 74 86
e 74 96
e 74 103
e 74 104
e 74 111
e 74 113
e 74 114
e 74 119
e 74 121
e 74 123
e 74 125
e 74 129
e 74 131
e 74 137
e 74 145
e 74 153
e 74 157
e 75 81
e 75 82
e 75 83
e 75 89
e 75 92
e 75 104
e 75 111
e 75 115
e 75 125
e 75 128
e 75 129
e 75 131
e 75 133
e 75 137
e 75 140
e 75 141
e 75 144
e 75 146
e 75 158
e 75 159
e 75 160
e 76 87
e 76 97
e 76 98
e 76 100
e 76 102
e 76 109
e 76 110
e 76 111
e 76 114
e 76 116
e 76 117
e 76 120
e 76 124
e 76 125
e 76 127
e 76 131
e 76 139
e 76 140
e 76 149
e 77 82
e 77 83
e 77 91
e 77 98
e 77 99
e 77 109
e 77 114
e 77 135
e 77 137
e 77 146
e 77 148
e 77 154
e 78 86
e 78 94
e 78 96
e 78 97
e 78 98
e 78 101
e 78 105
e 78 106
e 78 112
e 78 118
e 78 124
e 78 126
e 78 128
e 78 131
e 78 137
e 78 157
e 78 158
e 79 82
e 79 83
e 79 87
e 79 96
e 79 101
e 79 106
e 79 107
e 79 112
e 79 114
e 79 124
e 79 126
e 79 130
e 79 131
e 79 153
e 79 156
e 80 81
e 80 83
e 80 85
e 80 89
e 80 92
e 80 93
e 80 101
e 80 102
e 80 113
e 80 115
e 80 122
e 80 124
e 80 127
e 80 128
e 80 130
e 80 132
e 80 136
e 80 138
e 80 143
e 80 157
e 80 159
e 81 88
e 81 89
e 81 91
e 81 93
e 81 98
e 81 99
e 81 100
e 81 101
e 81 113
e 81 117
e 81 129
e 81 130
e 81 139
e 81 157
e 82 84
e 82 86
e 82 87
e 82 95
e 82 96
e 82 98
e 82 104
e 82 107
e 82 116
e 82 119
e 82 122
e 82 123
e 82 127
e 82 133
e 82 134
e 82 140
e 82 147
e 82 154
e 82 155
e 83 86
e 83 94
e 83 98
e 83 99
e 83 109
e 83 112
e 83 113
e 83 120
e 83 121
e 83 122
e 83 128
e 83 143
e 83 147
e 83 149
e 83 150
e 83 157
e 83 159
e 84 85
e 84 91
e 84 93
e 84 94
e 84 97
e 84 112
e 84 117
e 84 119
e 84 120
e 84 123
e 84 127
e 84 128
e 84 136
e 84 142
e 84 150
e 84 155
e 85 91
e 85 92
e 85 98
e 85 103
e 85 104
e 85 106
e 85 112
e 85 114
e 85 119
e 85 130
e 85 134
e 85 137
e 85 140
e 85 149
e 85 152
e 86 91
e 86 95
e 86 105
e 86 116
e 86 119
e 86 120
e 86 121
e 86 123
e 86 133
e 86 141
e 86 144
e 86 146
e 86 147
e 86 151
e 86 154
e 86 155
e 86 157
e 86 159
e 87 90
e 87 96
e 87 98
e 87 102
e 87 110
e 87 115
e 87 125
e 87 131
e 87 139
e 87 145
e 87 147
e 87 153
e 87 158
e 88 89
e 88 91
e 88 92
e 88 97
e 88 103
e 88 104
e 88 109
e 88 112
e 88 116
e 88 118
e 88 122
e 88 123
e 88 134
e 88 138
e 88 141
e 88 142
e 88 144
e 88 154
e 89 91
e 89 94
e 89 111
e 89 115
e 89 118
e 89 119
e 89 124
e 89 134
e 89 135
e 89 140
e 89 152
e 89 154
e 89 158
e 90 91
e 90 97
e 90 99
e 90 100
e 90 107
e 90 111
e 90 113
e 90 114
e 90 124
e 90 125
e 90 139
e 90 140
e 90 144
e 90 147
e 90 153
e 90 155
e 91 93
e 91 95
e 91 96
e 91 101
e 91 103
e 91 105
e 91 112
e 91 123
e 91 131
e 91 143
e 91 153
e 91 158
e 92 93
e 92 96
e 92 107
e 92 118
e 92 122
e 92 135
e 92 138
e 92 140
e 92 148
e 93 97
e 93 101
e 93 105
e 93 117
e 93 118
e 93 122
e 93 127
e 93 130
e 93 133
e 93 135
e 93 140
e 93 141
e 93 142
e 93 143
e 93 147
e 93 149
e 93 150
e 94 98
e 94 107
e 94 112
e 94 118
e 94 127
e 94 132
e 94 133
e 94 136
e 94 137
e 94 138
e 94 142
e 94 153
e 94 155
e 94 157
e 94 158
e 94 159
e 95 97
e 95 98
e 95 108
e 95 118
e 95 127
e 95 129
e 95 140
e 95 141
e 95 142
e 95 148
e 95 150
e 95 153
e 95 158
e 96 98
e 96 100
e 96 103
e 96 106
e 96 110
e 96 132
e 96 136
e 96 140
e 96 142
e 96 145
e 96 147
e 96 149
e 96 156
e 96 160
e 97 110
e 97 111
e 97 112
e 97 113
e 97 117
e 97 125
e 97 137
e 97 139
e 97 140
e 97 142
e 97 146
e 97 149
e 97 153
e 97 158
e 97 159
e 98 102
e 98 103
e 98 113
e 98 119
e 98 123
e 98 124
e 98 128
e 98 137
e 98 143
e 98 147
e 98 148
e 98 149
e 99 100
e 99 110
e 99 112
e 99 116
e 99 122
e 99 123
e 99 124
e 99 129
e 99 135
e 99 145
e 99 146
e 99 154
e 99 157
e 100 103
e 100 106
e 100 107
e 100 119
e 100 125
e 100 128
e 100 133
e 100 135
e 100 139
e 100 142
e 100 143
e 100 147
e 100 152
e 100 158
e 101 104
e 101 112
e 101 115
e 101 128
e 101 129
e 101 131
e 101 136
e 101 143
e 101 147
e 101 150
e 101 152
e 101 154
e 101 155
e 101 159
e 102 105
e 102 108
e 102 109
e 102 110
e 102 112
e 102 121
e 102 123
e 102 127
e 102 130
e 102 131
e 102 138
e 102 139
e 102 143
e 102 150
e 102 159
e 103 106
e 103 114
e 103 131
e 103 136
e 103 146
e 103 152
e 103 155
e 103 160
e 104 109
e 104 111
e 104 116
e 104 123
e 104 129
e 104 130
e 104 133
e 104 135
e 104 136
e 104 147
e 104 155
e 105 121
e 105 122
e 105 139
e 105 145
e 106 108
e 106 125
e 106 129
e 106 133
e 106 144
e 106 147
e 106 150
e 106 158
e 107 115
e 107 116
e 107 123
e 107 127
e 107 128
e 107 137
e 107 140
e 107 141
e 107 148
e 107 157
e 108 122
e 108 124
e 108 128
e 108 134
e 108 139
e 108 142
e 108 149
e 108 157
e 109 111
e 109 114
e 109 115
e 109 116
e 109 122
e 109 124
e 109 128
e 109 132
e 109 134
e 109 136
e 109 160
e 110 112
e 110 126
e 110 127
e 110 129
e 110 133
e 110 141
e 110 148
e 110 153
e 111 117
e 111 122
e 111 124
e 111 125
e 111 128
e 111 130
e 111 132
e 111 136
e 111 147
e 111 149
e 111 151
e 112 113
e 112 120
e 112 137
e 112 139
e 112 145
e 112 147
e 112 154
e 112 156
e 112 160
e 113 121
e 113 128
e 113 129
e 113 132
e 113 133
e 113 138
e 113 139
e 113 145
e 113 146
e 113 147
e 113 154
e 113 159
e 114 115
e 114 121
e 114 131
e 114 136
e 114 149
e 114 155
e 115 116
e 115 120
e 115 123
e 115 125
e 115 126
e 115 127
e 115 132
e 115 135
e 115 136
e 115 137
e 115 141
e 115 143
e 115 150
e 116 119
e 116 120
e 116 126
e 116 127
e 116 145
e 116 149
e 116 150
e 116 155
e 116 160
e 117 128
e 117 129
e 117 130
e 117 132
e 117 140
e 117 147
e 117 148
e 117 149
e 117 153
e 117 155
e 118 121
e 118 127
e 118 131
e 118 132
e 118 133
e 118 136
e 118 150
e 118 151
e 118 152
e 118 158
e 118 160
e 119 124
e 119 134
e 119 143
e 119 146
e 119 151
e 119 153
e 119 156
e 119 158
e 119 159
e 120 121
e 120 125
e 120 127
e 120 128
e 120 131
e 120 139
e 120 140
e 120 142
e 120 143
e 120 145
e 121 128
e 121 139
e 121 140
e 121 148
e 122 123
e 122 134
e 122 136
e 122 141
e 122 145
e 122 146
e 122 149
e 122 150
e 122 151
e 122 159
e 123 124
e 123 125
e 123 131
e 123 150
e 124 126
e 124 127
e 124 129
e 124 139
e 124 140
e 124 141
e 124 146
e 124 149
e 124 152
e 124 156
e 125 127
e 125 129
e 125 132
e 125 134
e 125 151
e 125 154
e 126 135
e 126 138
e 126 143
e 126 145
e 126 152
e 126 155
e 126 159
e 126 160
e 127 130
e 127 132
e 127 139
e 127 151
e 127 152
e 128 130
e 128 135
e 128 138
e 128 144
e 128 147
e 128 156
e 128 159
e 129 133
e 129 134
e 129 138
e 129 145
e 130 131
e 130 132
e 130 134
e 130 137
e 130 143
e 130 145
e 130 155
e 130 157
e 131 141
e 131 142
e 131 145
e 131 148
e 131 150
e 131 151
e 131 154
e 131 156
e 131 157
e 131 158
e 132 135
e 132 137
e 132 142
e 132 143
e 132 146
e 132 148
e 132 150
e 132 152
e 132 156
e 133 134
e 133 140
e 133 144
e 133 155
e 133 156
e 133 159
e 133 160
e 134 137
e 134 144
e 134 152
e 134 153
e 134 158
e 134 159
e 135 137
e 135 146
e 135 150
e 135 160
e 136 140
e 136 146
e 136 148
e 137 143
e 137 147
e 137 155
e 138 140
e 138 148
e 138 150
e 138 159
e 139 142
e 139 157
e 139 159
e 140 150
e 140 151
e 140 155
e 140 158
e 141 142
e 141 145
e 141 151
e 141 153
e 141 156
e 141 157
e 142 144
e 142 147
e 142 152
e 142 153
e 142 156
e 143 145
e 143 146
e 143 153
e 143 155
e 143 158
e 143 160
e 144 149
e 145 148
e 145 150
e 145 152
e 145 156
e 146 156
e 146 158
e 146 160
e 147 149
e 147 155
e 147 156
e 147 157
e 148 151
e 148 154
e 148 160
e 149 151
e 149 158
e 149 159
e 150 152
e 150 155
e 150 160
e 151 157
e 152 156
e 152 159
e 153 160
e 154 156
e 154 160
e 155 156
e 155 160
e 156 160
